\ Model (null)
\ LP format - for model browsing. Use MPS format to capture full model detail.
Maximize
  0 C0(0) + 0 C5(0) + 0 C10(0) + 0 C15(0) + 0 C16(0) + 0 C21(0) + 0 C26(0)
   + 0 C31(0) - 3 C32(4) - 3 C97(4) - 9 C98(20) - C107(1) - C108(1)
   - C109(1) - C110(1) - C111(2) - C112(3) - C113(3) - C114(3) - C115(3)
   - C116(2) - C117(3) - C118(3) - C119(3) - C120(3) - C121(2) - C122(3)
   - C123(3) - C124(3) - C125(3) - C126(2) - 3 C159(8) - 3 C160(8)
   - 3 C161(8) - 3 C162(8)
Subject To
 c0: C33(2) - C37(2) - 3 C99(10) + 3 C103(10) - C127(4) - C128(4) - C129(4)
   - C130(4) + C143(4) + C144(4) + C145(4) + C146(4) = -1
 c1: C34(2) - C38(2) - 3 C100(10) + 3 C104(10) - C131(4) - C132(4)
   - C133(4) - C134(4) + C147(4) + C148(4) + C149(4) + C150(4) = 0
 c2: C35(2) - C39(2) - 3 C101(10) + 3 C105(10) - C135(4) - C136(4)
   - C137(4) - C138(4) + C151(4) + C152(4) + C153(4) + C154(4) = 0
 c3: C36(2) - C40(2) - 3 C102(10) + 3 C106(10) - C139(4) - C140(4)
   - C141(4) - C142(4) + C155(4) + C156(4) + C157(4) + C158(4) = 0
 c4: - C32(4) + C33(2) + C37(2) + C41(2) + C42(2) - C97(4) - 6 C98(20)
   + 3 C99(10) + 3 C103(10) - C107(1) - 2 C111(2) - C112(3) - C113(3)
   - C114(3) - C115(3) - C119(3) - C123(3) + C127(4) + C128(4) + C129(4)
   + C130(4) + C143(4) + C144(4) + C145(4) + C146(4) - 4 C159(8) - C160(8)
   - C161(8) - C162(8) = 0
 c5: - C32(4) + C34(2) + C38(2) + C43(2) + C44(2) - C97(4) - 6 C98(20)
   + 3 C100(10) + 3 C104(10) - C108(1) - C112(3) - C115(3) - 2 C116(2)
   - C117(3) - C118(3) - C120(3) - C124(3) + C131(4) + C132(4) + C133(4)
   + C134(4) + C147(4) + C148(4) + C149(4) + C150(4) - C159(8) - 4 C160(8)
   - C161(8) - C162(8) = 0
 c6: - C32(4) + C35(2) + C39(2) + C45(2) + C46(2) - C97(4) - 6 C98(20)
   + 3 C101(10) + 3 C105(10) - C109(1) - C113(3) - C117(3) - C119(3)
   - C120(3) - 2 C121(2) - C122(3) - C125(3) + C135(4) + C136(4) + C137(4)
   + C138(4) + C151(4) + C152(4) + C153(4) + C154(4) - C159(8) - C160(8)
   - 4 C161(8) - C162(8) = 0
 c7: - C32(4) + C36(2) + C40(2) + C47(2) + C48(2) - C97(4) - 6 C98(20)
   + 3 C102(10) + 3 C106(10) - C110(1) - C114(3) - C118(3) - C122(3)
   - C123(3) - C124(3) - C125(3) - 2 C126(2) + C139(4) + C140(4) + C141(4)
   + C142(4) + C155(4) + C156(4) + C157(4) + C158(4) - C159(8) - C160(8)
   - C161(8) - 4 C162(8) = 0
 c8: C49(3) + C65(3) - C81(2) = 0
 c9: - C1(2) + C4(2) + C50(4) + C66(4) - C82(4) = 0
 c10: - C2(2) + C8(2) + C51(4) + C67(4) - C83(4) = 0
 c11: - C3(2) + C12(2) + C52(4) + C68(4) - C84(4) = 0
 c12: C1(2) - C4(2) + C53(4) + C69(4) - C85(4) = 0
 c13: C54(3) + C70(3) - C86(2) = 0
 c14: - C6(2) + C9(2) + C55(4) + C71(4) - C87(4) = 0
 c15: - C7(2) + C13(2) + C56(4) + C72(4) - C88(4) = 0
 c16: C2(2) - C8(2) + C57(4) + C73(4) - C89(4) = 0
 c17: C6(2) - C9(2) + C58(4) + C74(4) - C90(4) = 0
 c18: C59(3) + C75(3) - C91(2) = 0
 c19: - C11(2) + C14(2) + C60(4) + C76(4) - C92(4) = 0
 c20: C3(2) - C12(2) + C61(4) + C77(4) - C93(4) = 0
 c21: C7(2) - C13(2) + C62(4) + C78(4) - C94(4) = 0
 c22: C11(2) - C14(2) + C63(4) + C79(4) - C95(4) = 0
 c23: C64(3) + C80(3) - C96(2) = 0
 c24: - 2 C49(3) + 2 C65(3) + C99(10) - C103(10) + C127(4) - C143(4) = 0
 c25: - C50(4) - C53(4) + C66(4) + C69(4) - C82(4) + C85(4) + C99(10)
   - C103(10) + C128(4) - C144(4) = 0
 c26: - C51(4) - C57(4) + C67(4) + C73(4) - C83(4) + C89(4) + C99(10)
   - C103(10) + C129(4) - C145(4) = 0
 c27: - C52(4) - C61(4) + C68(4) + C77(4) - C84(4) + C93(4) + C99(10)
   - C103(10) + C130(4) - C146(4) = 0
 c28: - C50(4) - C53(4) + C66(4) + C69(4) + C82(4) - C85(4) + C100(10)
   - C104(10) + C131(4) - C147(4) = 0
 c29: - 2 C54(3) + 2 C70(3) + C100(10) - C104(10) + C132(4) - C148(4) = 0
 c30: - C55(4) - C58(4) + C71(4) + C74(4) - C87(4) + C90(4) + C100(10)
   - C104(10) + C133(4) - C149(4) = 0
 c31: - C56(4) - C62(4) + C72(4) + C78(4) - C88(4) + C94(4) + C100(10)
   - C104(10) + C134(4) - C150(4) = 0
 c32: - C51(4) - C57(4) + C67(4) + C73(4) + C83(4) - C89(4) + C101(10)
   - C105(10) + C135(4) - C151(4) = 0
 c33: - C55(4) - C58(4) + C71(4) + C74(4) + C87(4) - C90(4) + C101(10)
   - C105(10) + C136(4) - C152(4) = 0
 c34: - 2 C59(3) + 2 C75(3) + C101(10) - C105(10) + C137(4) - C153(4) = 0
 c35: - C60(4) - C63(4) + C76(4) + C79(4) - C92(4) + C95(4) + C101(10)
   - C105(10) + C138(4) - C154(4) = 0
 c36: - C52(4) - C61(4) + C68(4) + C77(4) + C84(4) - C93(4) + C102(10)
   - C106(10) + C139(4) - C155(4) = 0
 c37: - C56(4) - C62(4) + C72(4) + C78(4) + C88(4) - C94(4) + C102(10)
   - C106(10) + C140(4) - C156(4) = 0
 c38: - C60(4) - C63(4) + C76(4) + C79(4) + C92(4) - C95(4) + C102(10)
   - C106(10) + C141(4) - C157(4) = 0
 c39: - 2 C64(3) + 2 C80(3) + C102(10) - C106(10) + C142(4) - C158(4) = 0
 c40: - C41(2) - C42(2) + C49(3) + C65(3) + C81(2) + C98(20) - C99(10)
   - C103(10) + C111(2) - C127(4) - C143(4) + C159(8) = 0
 c41: - C17(2) + C20(2) + C50(4) + C66(4) + C82(4) + C98(20) - C99(10)
   - C103(10) + C112(3) - C128(4) - C144(4) + C159(8) = 0
 c42: - C18(2) + C24(2) + C51(4) + C67(4) + C83(4) + C98(20) - C99(10)
   - C103(10) + C113(3) - C129(4) - C145(4) + C159(8) = 0
 c43: - C19(2) + C28(2) + C52(4) + C68(4) + C84(4) + C98(20) - C99(10)
   - C103(10) + C114(3) - C130(4) - C146(4) + C159(8) = 0
 c44: C17(2) - C20(2) + C53(4) + C69(4) + C85(4) + C98(20) - C100(10)
   - C104(10) + C115(3) - C131(4) - C147(4) + C160(8) = 0
 c45: - C43(2) - C44(2) + C54(3) + C70(3) + C86(2) + C98(20) - C100(10)
   - C104(10) + C116(2) - C132(4) - C148(4) + C160(8) = 0
 c46: - C22(2) + C25(2) + C55(4) + C71(4) + C87(4) + C98(20) - C100(10)
   - C104(10) + C117(3) - C133(4) - C149(4) + C160(8) = 0
 c47: - C23(2) + C29(2) + C56(4) + C72(4) + C88(4) + C98(20) - C100(10)
   - C104(10) + C118(3) - C134(4) - C150(4) + C160(8) = 0
 c48: C18(2) - C24(2) + C57(4) + C73(4) + C89(4) + C98(20) - C101(10)
   - C105(10) + C119(3) - C135(4) - C151(4) + C161(8) = 0
 c49: C22(2) - C25(2) + C58(4) + C74(4) + C90(4) + C98(20) - C101(10)
   - C105(10) + C120(3) - C136(4) - C152(4) + C161(8) = 0
 c50: - C45(2) - C46(2) + C59(3) + C75(3) + C91(2) + C98(20) - C101(10)
   - C105(10) + C121(2) - C137(4) - C153(4) + C161(8) = 0
 c51: - C27(2) + C30(2) + C60(4) + C76(4) + C92(4) + C98(20) - C101(10)
   - C105(10) + C122(3) - C138(4) - C154(4) + C161(8) = 0
 c52: C19(2) - C28(2) + C61(4) + C77(4) + C93(4) + C98(20) - C102(10)
   - C106(10) + C123(3) - C139(4) - C155(4) + C162(8) = 0
 c53: C23(2) - C29(2) + C62(4) + C78(4) + C94(4) + C98(20) - C102(10)
   - C106(10) + C124(3) - C140(4) - C156(4) + C162(8) = 0
 c54: C27(2) - C30(2) + C63(4) + C79(4) + C95(4) + C98(20) - C102(10)
   - C106(10) + C125(3) - C141(4) - C157(4) + C162(8) = 0
 c55: - C47(2) - C48(2) + C64(3) + C80(3) + C96(2) + C98(20) - C102(10)
   - C106(10) + C126(2) - C142(4) - C158(4) + C162(8) = 0
Bounds
 C0(0) free
 C1(2) free
 C2(2) free
 C3(2) free
 C4(2) free
 C5(0) free
 C6(2) free
 C7(2) free
 C8(2) free
 C9(2) free
 C10(0) free
 C11(2) free
 C12(2) free
 C13(2) free
 C14(2) free
 C15(0) free
 C16(0) free
 C17(2) free
 C18(2) free
 C19(2) free
 C20(2) free
 C21(0) free
 C22(2) free
 C23(2) free
 C24(2) free
 C25(2) free
 C26(0) free
 C27(2) free
 C28(2) free
 C29(2) free
 C30(2) free
 C31(0) free
 C41(2) free
 C42(2) free
 C43(2) free
 C44(2) free
 C45(2) free
 C46(2) free
 C47(2) free
 C48(2) free
End
